8
2   0   5   6   1   8   8   2
1   8   0   2   1   2   4   1
6   7   6   0   2   5   6   5
1   6   6   1   0   4   8   1
8   6   5   5   7   0   3   9
2   6   1   3   4   1   0   6
9   9   4   8   2   2   3   0

